opl-tour-blending/opl-tour-blending.lp
\ENCODING=ISO-8859-1
\Problem name: IloCplex

Minimize
 obj: 22 p(1) + 10 p(2) + 13 p(3) + 6 r(1) + 5 r(2) + 7 s(1) + 8 s(2) + 9 i(1)
      + x9
Subject To
 ct1(1): - p(1) - 0.2 r(1) - 0.01 r(2) - 0.01 s(2) - 0.1 i(1) + m(1)  = 0
 ct1(2): - p(2) - 0.05 r(1) - 0.6 s(1) - 0.45 i(1) + m(2)  = 0
 ct1(3): - p(3) - 0.05 r(1) - 0.3 r(2) - 0.4 s(1) - 0.7 s(2) - 0.45 i(1) + m(3)
          = 0
 ct2:    m(1) + m(2) + m(3)  = 71
Bounds
      i(1) >= 0
      x9 = 0
 3.55 <= m(1) <= 7.1
 21.3 <= m(2) <= 28.4
 42.6 <= m(3) <= 56.8
Generals
 i(1) 
End
