opl-tour-blending/opl-tour-blending.log
Default LOCALE: English_United Kingdom.1252
IBM ILOG CPLEX Optimization Studio Preview Edition good for 65 more days.  The CPLEX Optimizers will solve problems up to 1000 variables and 1000 constraints.
CP Optimizer solves problems with a search space of up to 2^1000

<<< setup, at 0s, took 0.033s


<<< generate, at 0.015625s, took 0.087s


<<< export model: opl-tour-blending.lp, at 0.015625s, took 0.008s

Tried aggregator 1 time.
MIP Presolve eliminated 0 rows and 1 columns.
Reduced MIP has 4 rows, 11 columns, and 21 nonzeros.
Reduced MIP has 0 binaries, 1 generals, 0 SOSs, and 0 indicators.
Presolve time = 0.00 sec. (0.01 ticks)
Found incumbent of value 923.000000 after 0.00 sec. (0.03 ticks)
Tried aggregator 1 time.
Reduced MIP has 4 rows, 11 columns, and 21 nonzeros.
Reduced MIP has 0 binaries, 1 generals, 0 SOSs, and 0 indicators.
Presolve time = 0.00 sec. (0.01 ticks)
MIP emphasis: balance optimality and feasibility.
MIP search method: dynamic search.
Parallel mode: deterministic, using up to 4 threads.
Root relaxation solution time = 0.02 sec. (0.01 ticks)

        Nodes                                         Cuts/
   Node  Left     Objective  IInf  Best Integer    Best Bound    ItCnt     Gap

*     0+    0                          923.0000        0.0000        4  100.00%
      0     0      653.5541     1      923.0000      653.5541        4   29.19%
*     0+    0                          653.6100      653.5541        4    0.01%

Root node processing (before b&c):
  Real time             =    0.06 sec. (0.07 ticks)
Parallel b&c, 4 threads:
  Real time             =    0.00 sec. (0.00 ticks)
  Sync time (average)   =    0.00 sec.
  Wait time (average)   =    0.00 sec.
                          ------------
Total (root+branch&cut) =    0.06 sec. (0.07 ticks)

<<< solve, at 0.078125s, took 0.071s


OBJECTIVE: 653.61

<<< post process, at 0.078125s, took 0s

// solution (integer optimal, tolerance) with objective 653.61
// Quality Incumbent solution:
// MILP objective                                6.5361000000e+002
// MILP solution norm |x| (Total, Max)           1.50797e+002 4.26000e+001
// MILP solution error (Ax=b) (Total, Max)       0.00000e+000 0.00000e+000
// MILP x bound error (Total, Max)               4.44089e-016 4.44089e-016
// MILP x integrality error (Total, Max)         0.00000e+000 0.00000e+000
// MILP slack bound error (Total, Max)           0.00000e+000 0.00000e+000
// 

p = [0.046667
         0 0];
r = [0 0];
s = [17.417 30.333];
i = [32];
m = [3.55 24.85 42.6];

<<< done, at 0.078125s, took 0.004s

